p cnf 613 530
1 0
-275 6 0
-347 6 0
-410 6 0
-411 6 0
-350 6 0
-277 6 0
-412 6 0
-191 6 0
-194 6 0
-264 6 0
-363 6 0
-279 6 0
-195 6 0
-369 6 0
-416 6 0
-281 6 0
-371 6 0
-284 6 0
-285 6 0
-286 6 0
-265 6 0
-272 6 0
-367 6 0
-448 6 0
-268 6 0
-269 6 0
-270 6 0
-271 6 0
-266 6 0
-267 6 0
-603 6 0
-601 6 0
-261 6 0
-263 6 0
-256 6 0
-273 6 0
-274 6 0
-549 6 0
-25 6 0
-192 6 0
-295 6 0
-536 6 0
-297 6 0
-381 6 0
-309 6 0
-438 6 0
-444 6 0
-445 6 0
-258 6 0
-376 6 0
-461 6 0
-313 6 0
-196 6 0
-197 6 0
-198 6 0
-314 6 0
-253 6 0
-260 6 0
-299 6 0
-300 6 0
-302 6 0
-303 6 0
-262 6 0
-255 6 0
-75 6 0
-320 6 0
-477 6 0
-481 6 0
-199 6 0
-329 6 0
-395 6 0
-396 6 0
-259 6 0
-485 6 0
-333 6 0
-398 6 0
-35 6 0
-336 6 0
-203 6 0
-205 6 0
-207 6 0
-208 6 0
-209 6 0
-486 6 0
-163 6 0
-337 6 0
-340 6 0
-501 6 0
-506 6 0
-513 6 0
-508 6 0
-341 6 0
-520 6 0
-405 6 0
-526 6 0
-8 -7 0
-9 -7 0
-9 -8 0
7 8 9 0
-11 10 0
-12 10 0
-17 16 0
-17 15 0
-18 16 0
-18 -17 0
-19 16 0
-20 16 0
-21 16 0
-21 -17 0
-22 21 0
-23 16 0
-30 29 0
-33 32 0
-34 33 0
-363 37 0
-417 37 0
-325 37 0
-236 37 0
-454 37 0
-604 37 0
-237 37 0
-242 37 0
-246 37 0
-249 37 0
-491 37 0
-526 37 0
363 417 325 236 454 604 237 242 246 249 491 526 -37 0
-460 38 0
-325 38 0
460 325 -38 0
-39 -40 0
-42 -36 0
-42 -40 0
-42 -39 0
-43 42 0
-44 42 0
-47 46 0
-51 -50 0
-52 -50 0
-52 -51 0
50 51 52 0
-54 -53 0
-55 -53 0
-55 -54 0
-56 -53 0
-56 -54 0
-56 -55 0
53 54 55 56 0
-55 -58 -57 0
-55 -59 -57 0
-55 -59 -58 0
-55 57 58 59 0
55 -57 0
55 -58 0
55 -59 0
-62 319 0
-64 63 0
-65 63 0
-66 65 0
-67 65 0
-68 63 0
-69 68 0
-70 63 0
-71 63 0
-88 87 0
-88 26 0
-93 92 0
-93 26 0
-96 95 0
-97 95 0
-97 96 0
-98 95 0
-100 99 0
-102 103 0
102 -103 0
-105 104 0
-107 106 0
-109 108 0
-109 26 0
-111 110 0
-111 26 0
-113 112 0
-118 117 0
-120 119 0
-120 26 0
-124 123 0
-125 123 0
-126 123 0
-127 123 0
-128 123 0
-129 123 0
-130 123 0
-130 26 0
-131 130 0
-134 133 0
-134 26 0
-138 137 0
-138 26 0
-146 145 0
-150 149 0
-150 26 0
-157 156 0
-158 157 0
-160 159 0
-162 161 0
-164 163 0
-170 169 0
-172 171 0
-177 176 0
-177 26 0
-183 182 0
-187 92 137 0
-188 123 319 488 0
-189 99 104 123 0
-190 132 152 153 154 155 0
-202 201 0
-204 203 0
-204 26 0
-206 205 0
-210 197 205 0
-211 197 205 0
-215 214 0
-215 26 0
-216 214 0
-218 217 0
-219 217 0
-219 26 0
-221 0
-224 223 0
-224 222 0
-226 225 0
-228 227 0
-228 26 0
-229 227 230 0
-231 230 0
-231 26 0
-232 230 0
-235 234 0
-238 237 0
-239 237 0
-240 237 0
-241 237 0
-243 242 0
-247 246 0
-248 246 0
-256 255 0
-257 255 0
-255 -258 0
-255 -259 0
-255 -260 0
-261 260 0
-255 -262 0
-263 262 0
-255 -264 0
-265 258 259 260 0
-266 258 255 0
-267 265 0
-267 258 262 0
-268 265 0
-268 258 262 0
-269 265 0
-269 258 262 0
-270 265 0
-270 258 0
-271 270 0
-271 -255 0
-272 260 265 0
-272 -255 0
-273 264 262 0
-274 264 262 0
-276 275 0
-278 277 0
-280 279 0
-282 281 0
-283 281 0
-287 286 0
-287 -45 0
-288 286 0
-289 286 0
-289 288 0
-290 286 0
-290 288 0
-291 286 0
-291 288 0
-292 286 0
-292 288 0
-293 286 0
-293 288 0
-294 286 0
-294 288 0
-301 298 300 0
-305 304 0
-307 306 0
-308 306 0
-310 309 0
-310 26 0
-311 309 0
-318 317 0
-345 321 0
345 -321 320 0
-322 320 0
-323 320 0
-324 320 0
-325 320 0
-326 320 0
-327 320 0
-328 320 0
-338 337 0
-339 337 0
-342 341 0
-343 320 341 0
-344 343 0
-345 320 341 0
-277 346 0
-324 346 0
-295 346 0
277 324 295 -346 0
-349 348 0
-352 351 0
-353 351 0
-354 351 0
-355 351 0
-356 351 0
-357 351 0
-358 351 0
-362 361 0
-364 363 0
-365 363 0
-366 363 0
-370 369 0
-378 30 0
-378 -380 -379 0
-378 379 380 0
378 -379 0
378 -380 0
-382 381 0
-383 381 0
-384 381 0
-385 381 0
-386 381 0
-387 381 0
-388 -390 -389 0
-388 389 390 0
388 -389 0
388 -390 0
-396 45 0
-397 29 0
-408 406 0
-413 412 0
-414 412 0
-414 413 0
-419 418 0
-420 418 0
-421 418 0
-424 26 0
-424 422 423 0
-427 426 0
-428 426 0
-429 426 0
-430 429 0
-431 426 0
-432 431 0
-433 431 0
-434 426 0
-435 426 0
-436 426 0
-437 426 0
-449 438 0
-439 438 0
-440 438 0
-441 438 0
-442 438 0
-443 438 0
-447 446 0
-448 447 0
-449 446 0
-449 -447 0
-450 446 0
-451 446 0
-451 406 0
-452 446 0
-453 446 0
-455 454 0
-456 454 0
-457 454 0
-458 454 0
-459 454 0
-460 454 0
-448 461 0
-448 462 0
448 -462 461 0
-448 463 0
448 -463 461 0
-448 464 0
448 -464 461 0
-465 461 0
-466 461 0
-467 461 0
-468 461 0
-467 -462 469 0
467 -469 0
462 -469 0
-467 -463 470 0
467 -470 0
463 -470 0
-467 -464 471 0
467 -471 0
464 -471 0
-467 -465 472 0
467 -472 0
465 -472 0
-467 -466 473 0
467 -473 0
466 -473 0
-475 474 0
-476 474 0
-476 26 0
-478 477 0
-479 477 0
-482 481 0
-483 481 0
-449 485 0
-489 488 0
-490 488 0
-492 491 0
-493 492 0
-496 494 495 0
-497 494 495 0
-498 494 495 0
-499 494 0
-499 498 0
-500 494 495 0
-502 406 0
-502 501 0
-503 501 0
-504 501 0
-505 501 0
-507 506 0
-509 508 0
-510 508 0
-511 508 0
-512 508 0
-514 513 0
-515 513 0
-516 508 513 0
-517 508 513 0
-518 508 513 0
-522 521 0
-523 521 0
-524 521 0
-524 26 0
-525 521 0
-532 531 0
-534 533 0
-539 538 0
-540 538 0
-543 542 0
-544 542 0
-547 546 0
-547 -2 0
-548 546 0
-548 -2 0
-549 546 0
-549 2 0
-550 546 0
-550 2 0
-551 549 0
-554 546 0
-558 557 0
-566 35 0
-567 35 0
-567 566 0
-567 26 0
-568 35 0
-569 35 0
-570 35 0
-571 35 0
-572 35 0
-573 35 0
-574 35 0
-574 573 0
-574 26 0
-575 35 0
-576 35 0
-577 35 0
-578 35 0
-578 577 0
-579 35 0
-580 35 0
-581 0
-581 -41 0
-582 0
-582 -581 0
-583 -581 0
-583 -582 0
581 582 583 0
-584 0
-584 -41 0
-585 0
-585 -584 0
-586 -584 0
-586 -585 0
584 585 586 0
-587 0
-588 587 0
-589 0
-590 0
-590 36 0
-591 0
-591 36 0
-592 0
-594 593 0
-595 593 0
-596 593 0
-597 593 0
-598 593 0
-599 598 0
-600 599 0
-601 593 0
-603 602 0
-605 0
-606 0
-607 0
-608 0
-609 0
-610 0
-611 0
-612 0
-613 0
